Version identifier: 20.1.0.0 | 2020-11-10 | 9bedb6d68
CPXPARAM_Threads                                 1
CPXPARAM_TimeLimit                               7200
CPXPARAM_MIP_Tolerances_MIPGap                   0
Generic callback                                 0x60
1 of 1 MIP starts provided solutions.
MIP start 'm1' defined initial solution with objective 1652.8628.
Tried aggregator 1 time.
Reduced MIP has 1001001 rows, 1001001 columns, and 3001000 nonzeros.
Reduced MIP has 1000 binaries, 0 generals, 0 SOSs, and 0 indicators.
Presolve time = 0.90 sec. (798.63 ticks)
Probing time = 0.13 sec. (125.04 ticks)
Tried aggregator 1 time.
Reduced MIP has 1001001 rows, 1001001 columns, and 3001000 nonzeros.
Reduced MIP has 1000 binaries, 0 generals, 0 SOSs, and 0 indicators.
Presolve time = 0.90 sec. (782.41 ticks)
Probing time = 0.13 sec. (125.04 ticks)
MIP emphasis: balance optimality and feasibility.
MIP search method: dynamic search.
Parallel mode: none, using 1 thread.
Root relaxation solution time = 0.33 sec. (385.37 ticks)

        Nodes                                         Cuts/
   Node  Left     Objective  IInf  Best Integer    Best Bound    ItCnt     Gap

*     0+    0                         1652.8628     5432.0000           228.64%
      0     0     1656.5151    13     1652.8628     5432.0000        0  228.64%
      0     2     1656.5151    13     1652.8628     1656.5147        0    0.22%
Elapsed time = 1269.08 sec. (1265967.17 ticks, tree = 0.01 MB, solutions = 1)
      1     3     1655.6655    23     1652.8628     1656.5091    11128    0.22%
      2     4     1654.9753     6     1652.8628     1655.6654    16616    0.17%
*     3     3      integral     0     1654.8071     1655.6654    17080    0.05%
      4     2        cutoff           1654.8071     1655.6654    31259    0.05%
      5     3     1655.2702    23     1654.8071     1655.6654    50664    0.05%
      6     2        cutoff           1654.8071     1655.6654    55777    0.05%
      7     1        cutoff           1654.8071     1655.6654    58770    0.05%
*     8     0      integral     0     1655.0922     1655.0922    61344    0.00%

User cuts applied:  12

Root node processing (before b&c):
  Real time             = 1268.91 sec. (1265805.65 ticks)
Sequential b&c:
  Real time             = 1409.56 sec. (1060506.79 ticks)
                          ------------
Total (root+branch&cut) = 2678.47 sec. (2326312.44 ticks)
@Parameters: 
is_S_cut                                true
is_add_all_yinF                         true
is_start_value                          true
is_usercut                              true
is_visualization                        false
uc_only_rootnode                        false

data                                    Qi
fn                                      data/Qi/instance_1000_1000.csv
mode                                    ZLP
solver                                  cplex

p                                       5
r                                       50

EPS                                     1.0e-06
EPS_vio                                 1.0e-04
beta                                    0.10
gap                                     0.00
nodelimit                               Inf
timelimit                               7200.00


@PrintInfos
ItCnt: 61344
Current gap: 0.00 %
Termination Status: OPTIMAL
Primal Status: FEASIBLE_POINT
Solve Time: 2678.47 sec
Objective Value: 1655.092160
Number of Nodes:      9

CutInfo: [phase] num / time (sec) 
ZLP             [phase1]     0 / 0.00 [rLC]     5 / 15.74 [rUC]     2 / 5.94 [sLC]     0 / 3.24 [sUC]    10 / 49.46 
OldSubmodular   [phase1]     0 / 0.00 [rLC]     0 / 0.00 [rUC]     0 / 0.00 [sLC]     0 / 0.00 [sUC]     0 / 0.00 
NewSubmodular   [phase1]     0 / 0.00 [rLC]     0 / 0.00 [rUC]     0 / 0.00 [sLC]     0 / 0.00 [sUC]     0 / 0.00 
PMP             [phase1]     0 / 0.00 [rLC]     6 / 5.95 [rUC]     2 / 2.80 [sLC]     2 / 2.02 [sUC]    16 / 20.26 
Separation Round: [phase1] 0  [rLC] 6  [rUC] 2  [sLC] 2  [sUC] 16
Root Best Bound 1655.665431
Root Best Integer: 1652.862761
Best Bound: 1655.092160
Best Integer: 1655.092160

